90 4005
1 2 53
1 3 258
1 4 225
1 5 23
1 6 89
1 7 240
1 8 65
1 9 125
1 10 99
1 11 97
1 12 114
1 13 125
1 14 205
1 15 104
1 16 146
1 17 251
1 18 43
1 19 259
1 20 158
1 21 78
1 22 268
1 23 93
1 24 164
1 25 156
1 26 68
1 27 229
1 28 219
1 29 157
1 30 89
1 31 189
1 32 67
1 33 245
1 34 201
1 35 135
1 36 204
1 37 65
1 38 266
1 39 125
1 40 203
1 41 20
1 42 242
1 43 70
1 44 96
1 45 43
1 46 0
1 47 101
1 48 19
1 49 239
1 50 102
1 51 229
1 52 60
1 53 231
1 54 65
1 55 79
1 56 97
1 57 235
1 58 36
1 59 74
1 60 217
1 61 61
1 62 211
1 63 64
1 64 51
1 65 108
1 66 143
1 67 143
1 68 42
1 69 225
1 70 86
1 71 163
1 72 79
1 73 127
1 74 245
1 75 164
1 76 32
1 77 195
1 78 258
1 79 114
1 80 5
1 81 24
1 82 239
1 83 132
1 84 136
1 85 189
1 86 13
1 87 31
1 88 141
1 89 152
1 90 183
2 3 265
2 4 250
2 5 52
2 6 92
2 7 106
2 8 244
2 9 142
2 10 225
2 11 246
2 12 249
2 13 38
2 14 269
2 15 31
2 16 81
2 17 211
2 18 130
2 19 210
2 20 51
2 21 164
2 22 255
2 23 114
2 24 165
2 25 151
2 26 140
2 27 197
2 28 112
2 29 105
2 30 83
2 31 60
2 32 77
2 33 1
2 34 167
2 35 198
2 36 4
2 37 237
2 38 199
2 39 112
2 40 19
2 41 225
2 42 256
2 43 16
2 44 174
2 45 186
2 46 108
2 47 116
2 48 231
2 49 30
2 50 235
2 51 254
2 52 108
2 53 258
2 54 142
2 55 20
2 56 165
2 57 133
2 58 19
2 59 212
2 60 106
2 61 266
2 62 146
2 63 214
2 64 62
2 65 115
2 66 164
2 67 71
2 68 266
2 69 184
2 70 74
2 71 4
2 72 0
2 73 231
2 74 119
2 75 117
2 76 205
2 77 39
2 78 214
2 79 7
2 80 41
2 81 244
2 82 15
2 83 240
2 84 205
2 85 153
2 86 68
2 87 234
2 88 149
2 89 261
2 90 14
3 4 254
3 5 75
3 6 242
3 7 45
3 8 174
3 9 176
3 10 212
3 11 1
3 12 83
3 13 196
3 14 53
3 15 126
3 16 175
3 17 217
3 18 214
3 19 81
3 20 235
3 21 21
3 22 234
3 23 266
3 24 186
3 25 8
3 26 86
3 27 246
3 28 220
3 29 6
3 30 246
3 31 57
3 32 250
3 33 1
3 34 153
3 35 246
3 36 48
3 37 3
3 38 32
3 39 249
3 40 152
3 41 17
3 42 8
3 43 34
3 44 161
3 45 169
3 46 32
3 47 129
3 48 189
3 49 38
3 50 170
3 51 171
3 52 55
3 53 12
3 54 139
3 55 74
3 56 2
3 57 82
3 58 40
3 59 148
3 60 37
3 61 92
3 62 59
3 63 224
3 64 57
3 65 57
3 66 131
3 67 198
3 68 237
3 69 67
3 70 162
3 71 220
3 72 136
3 73 210
3 74 0
3 75 97
3 76 40
3 77 256
3 78 244
3 79 129
3 80 150
3 81 198
3 82 36
3 83 247
3 84 217
3 85 261
3 86 7
3 87 195
3 88 129
3 89 41
3 90 5
4 5 51
4 6 90
4 7 55
4 8 77
4 9 105
4 10 227
4 11 92
4 12 226
4 13 10
4 14 110
4 15 197
4 16 228
4 17 27
4 18 171
4 19 106
4 20 205
4 21 88
4 22 20
4 23 12
4 24 213
4 25 137
4 26 163
4 27 118
4 28 175
4 29 113
4 30 67
4 31 34
4 32 4
4 33 182
4 34 165
4 35 78
4 36 146
4 37 152
4 38 95
4 39 14
4 40 73
4 41 100
4 42 183
4 43 95
4 44 173
4 45 195
4 46 33
4 47 68
4 48 39
4 49 28
4 50 40
4 51 214
4 52 146
4 53 203
4 54 173
4 55 110
4 56 55
4 57 231
4 58 122
4 59 77
4 60 133
4 61 167
4 62 85
4 63 233
4 64 159
4 65 259
4 66 49
4 67 36
4 68 79
4 69 103
4 70 24
4 71 89
4 72 210
4 73 236
4 74 147
4 75 7
4 76 92
4 77 265
4 78 120
4 79 25
4 80 265
4 81 77
4 82 227
4 83 254
4 84 44
4 85 207
4 86 210
4 87 198
4 88 233
4 89 235
4 90 63
5 6 263
5 7 125
5 8 243
5 9 8
5 10 5
5 11 198
5 12 173
5 13 61
5 14 207
5 15 34
5 16 172
5 17 86
5 18 23
5 19 135
5 20 95
5 21 244
5 22 47
5 23 130
5 24 17
5 25 191
5 26 162
5 27 120
5 28 204
5 29 160
5 30 228
5 31 131
5 32 140
5 33 220
5 34 123
5 35 79
5 36 17
5 37 257
5 38 198
5 39 186
5 40 222
5 41 269
5 42 165
5 43 81
5 44 213
5 45 6
5 46 83
5 47 98
5 48 28
5 49 226
5 50 245
5 51 187
5 52 264
5 53 247
5 54 77
5 55 28
5 56 2
5 57 59
5 58 77
5 59 81
5 60 6
5 61 185
5 62 153
5 63 152
5 64 239
5 65 225
5 66 38
5 67 18
5 68 36
5 69 245
5 70 18
5 71 157
5 72 67
5 73 21
5 74 212
5 75 247
5 76 84
5 77 265
5 78 40
5 79 8
5 80 17
5 81 207
5 82 121
5 83 116
5 84 246
5 85 226
5 86 88
5 87 186
5 88 25
5 89 138
5 90 227
6 7 143
6 8 77
6 9 218
6 10 78
6 11 63
6 12 130
6 13 107
6 14 121
6 15 37
6 16 225
6 17 123
6 18 134
6 19 154
6 20 221
6 21 17
6 22 174
6 23 34
6 24 153
6 25 231
6 26 236
6 27 124
6 28 188
6 29 70
6 30 234
6 31 179
6 32 127
6 33 149
6 34 132
6 35 163
6 36 237
6 37 183
6 38 99
6 39 157
6 40 77
6 41 150
6 42 192
6 43 1
6 44 49
6 45 226
6 46 262
6 47 261
6 48 212
6 49 167
6 50 123
6 51 155
6 52 118
6 53 64
6 54 110
6 55 191
6 56 62
6 57 124
6 58 116
6 59 100
6 60 176
6 61 221
6 62 78
6 63 136
6 64 75
6 65 47
6 66 265
6 67 59
6 68 110
6 69 220
6 70 158
6 71 154
6 72 235
6 73 239
6 74 27
6 75 127
6 76 53
6 77 234
6 78 198
6 79 52
6 80 238
6 81 188
6 82 140
6 83 171
6 84 216
6 85 119
6 86 254
6 87 260
6 88 26
6 89 255
6 90 196
7 8 195
7 9 192
7 10 95
7 11 163
7 12 205
7 13 6
7 14 235
7 15 42
7 16 230
7 17 195
7 18 27
7 19 268
7 20 49
7 21 206
7 22 230
7 23 67
7 24 262
7 25 139
7 26 134
7 27 149
7 28 18
7 29 98
7 30 257
7 31 256
7 32 124
7 33 44
7 34 158
7 35 97
7 36 54
7 37 213
7 38 75
7 39 162
7 40 161
7 41 108
7 42 233
7 43 90
7 44 180
7 45 124
7 46 101
7 47 114
7 48 103
7 49 57
7 50 144
7 51 231
7 52 225
7 53 48
7 54 241
7 55 205
7 56 95
7 57 66
7 58 106
7 59 103
7 60 153
7 61 72
7 62 60
7 63 232
7 64 59
7 65 230
7 66 264
7 67 104
7 68 4
7 69 142
7 70 31
7 71 128
7 72 244
7 73 60
7 74 29
7 75 204
7 76 101
7 77 79
7 78 209
7 79 100
7 80 185
7 81 140
7 82 110
7 83 230
7 84 60
7 85 242
7 86 131
7 87 235
7 88 3
7 89 139
7 90 98
8 9 247
8 10 58
8 11 205
8 12 171
8 13 30
8 14 149
8 15 8
8 16 257
8 17 53
8 18 44
8 19 256
8 20 265
8 21 244
8 22 217
8 23 264
8 24 150
8 25 120
8 26 114
8 27 61
8 28 170
8 29 139
8 30 183
8 31 80
8 32 240
8 33 137
8 34 97
8 35 176
8 36 0
8 37 161
8 38 239
8 39 208
8 40 245
8 41 64
8 42 77
8 43 56
8 44 213
8 45 26
8 46 208
8 47 112
8 48 105
8 49 152
8 50 215
8 51 131
8 52 234
8 53 174
8 54 147
8 55 256
8 56 197
8 57 220
8 58 161
8 59 193
8 60 81
8 61 2
8 62 95
8 63 211
8 64 130
8 65 97
8 66 79
8 67 73
8 68 269
8 69 0
8 70 240
8 71 12
8 72 118
8 73 237
8 74 9
8 75 29
8 76 143
8 77 118
8 78 245
8 79 150
8 80 37
8 81 174
8 82 241
8 83 77
8 84 203
8 85 255
8 86 24
8 87 49
8 88 94
8 89 16
8 90 28
9 10 73
9 11 210
9 12 5
9 13 133
9 14 182
9 15 169
9 16 89
9 17 84
9 18 7
9 19 150
9 20 49
9 21 80
9 22 81
9 23 133
9 24 22
9 25 119
9 26 206
9 27 22
9 28 150
9 29 225
9 30 225
9 31 39
9 32 230
9 33 157
9 34 131
9 35 58
9 36 188
9 37 98
9 38 259
9 39 130
9 40 54
9 41 263
9 42 46
9 43 114
9 44 138
9 45 68
9 46 65
9 47 75
9 48 148
9 49 176
9 50 77
9 51 10
9 52 124
9 53 107
9 54 178
9 55 243
9 56 219
9 57 51
9 58 15
9 59 256
9 60 242
9 61 93
9 62 237
9 63 193
9 64 93
9 65 100
9 66 13
9 67 13
9 68 131
9 69 230
9 70 117
9 71 145
9 72 263
9 73 218
9 74 107
9 75 15
9 76 98
9 77 17
9 78 62
9 79 138
9 80 126
9 81 25
9 82 107
9 83 116
9 84 37
9 85 256
9 86 198
9 87 6
9 88 99
9 89 153
9 90 95
10 11 53
10 12 178
10 13 184
10 14 81
10 15 39
10 16 8
10 17 86
10 18 202
10 19 24
10 20 133
10 21 63
10 22 30
10 23 37
10 24 134
10 25 97
10 26 112
10 27 218
10 28 35
10 29 229
10 30 185
10 31 128
10 32 260
10 33 223
10 34 151
10 35 213
10 36 197
10 37 52
10 38 226
10 39 66
10 40 127
10 41 51
10 42 107
10 43 57
10 44 137
10 45 223
10 46 88
10 47 10
10 48 96
10 49 123
10 50 62
10 51 76
10 52 55
10 53 245
10 54 119
10 55 159
10 56 260
10 57 90
10 58 107
10 59 9
10 60 94
10 61 221
10 62 29
10 63 111
10 64 102
10 65 200
10 66 120
10 67 149
10 68 67
10 69 248
10 70 219
10 71 86
10 72 150
10 73 268
10 74 243
10 75 268
10 76 231
10 77 178
10 78 257
10 79 9
10 80 210
10 81 17
10 82 230
10 83 123
10 84 196
10 85 4
10 86 196
10 87 52
10 88 163
10 89 154
10 90 149
11 12 197
11 13 159
11 14 184
11 15 142
11 16 57
11 17 264
11 18 127
11 19 66
11 20 197
11 21 64
11 22 132
11 23 230
11 24 56
11 25 252
11 26 70
11 27 161
11 28 98
11 29 228
11 30 206
11 31 227
11 32 245
11 33 115
11 34 162
11 35 14
11 36 76
11 37 152
11 38 196
11 39 146
11 40 252
11 41 265
11 42 103
11 43 145
11 44 67
11 45 23
11 46 187
11 47 254
11 48 111
11 49 190
11 50 159
11 51 17
11 52 130
11 53 78
11 54 173
11 55 154
11 56 90
11 57 84
11 58 100
11 59 48
11 60 76
11 61 104
11 62 192
11 63 239
11 64 208
11 65 265
11 66 267
11 67 26
11 68 190
11 69 239
11 70 191
11 71 62
11 72 126
11 73 35
11 74 0
11 75 88
11 76 187
11 77 261
11 78 113
11 79 219
11 80 1
11 81 51
11 82 201
11 83 241
11 84 33
11 85 20
11 86 6
11 87 120
11 88 176
11 89 4
11 90 118
12 13 122
12 14 3
12 15 219
12 16 27
12 17 103
12 18 14
12 19 115
12 20 83
12 21 124
12 22 266
12 23 33
12 24 235
12 25 65
12 26 242
12 27 59
12 28 242
12 29 244
12 30 199
12 31 99
12 32 67
12 33 131
12 34 215
12 35 62
12 36 265
12 37 225
12 38 98
12 39 228
12 40 91
12 41 177
12 42 131
12 43 119
12 44 205
12 45 57
12 46 130
12 47 208
12 48 113
12 49 90
12 50 209
12 51 190
12 52 60
12 53 215
12 54 265
12 55 240
12 56 202
12 57 45
12 58 49
12 59 261
12 60 25
12 61 166
12 62 162
12 63 95
12 64 197
12 65 207
12 66 60
12 67 144
12 68 212
12 69 251
12 70 197
12 71 120
12 72 189
12 73 60
12 74 7
12 75 8
12 76 106
12 77 183
12 78 84
12 79 209
12 80 70
12 81 184
12 82 156
12 83 192
12 84 122
12 85 104
12 86 110
12 87 264
12 88 82
12 89 206
12 90 190
13 14 135
13 15 223
13 16 215
13 17 127
13 18 11
13 19 242
13 20 94
13 21 109
13 22 57
13 23 209
13 24 258
13 25 55
13 26 111
13 27 204
13 28 249
13 29 157
13 30 65
13 31 27
13 32 264
13 33 241
13 34 38
13 35 144
13 36 41
13 37 94
13 38 102
13 39 143
13 40 57
13 41 168
13 42 7
13 43 50
13 44 195
13 45 22
13 46 131
13 47 204
13 48 79
13 49 12
13 50 224
13 51 175
13 52 46
13 53 203
13 54 197
13 55 96
13 56 166
13 57 259
13 58 182
13 59 86
13 60 31
13 61 193
13 62 47
13 63 81
13 64 62
13 65 73
13 66 162
13 67 43
13 68 182
13 69 48
13 70 80
13 71 255
13 72 144
13 73 125
13 74 127
13 75 24
13 76 262
13 77 226
13 78 190
13 79 109
13 80 87
13 81 56
13 82 100
13 83 60
13 84 183
13 85 240
13 86 78
13 87 205
13 88 51
13 89 209
13 90 181
14 15 150
14 16 210
14 17 78
14 18 22
14 19 215
14 20 0
14 21 36
14 22 238
14 23 54
14 24 135
14 25 43
14 26 208
14 27 164
14 28 79
14 29 27
14 30 61
14 31 11
14 32 8
14 33 227
14 34 247
14 35 33
14 36 149
14 37 220
14 38 194
14 39 231
14 40 232
14 41 128
14 42 89
14 43 79
14 44 252
14 45 186
14 46 158
14 47 151
14 48 55
14 49 207
14 50 201
14 51 187
14 52 218
14 53 138
14 54 178
14 55 133
14 56 268
14 57 193
14 58 126
14 59 5
14 60 28
14 61 10
14 62 195
14 63 133
14 64 50
14 65 93
14 66 258
14 67 128
14 68 204
14 69 55
14 70 12
14 71 216
14 72 87
14 73 253
14 74 166
14 75 189
14 76 106
14 77 16
14 78 246
14 79 60
14 80 49
14 81 255
14 82 167
14 83 97
14 84 202
14 85 77
14 86 128
14 87 178
14 88 24
14 89 135
14 90 3
15 16 144
15 17 231
15 18 220
15 19 181
15 20 124
15 21 199
15 22 146
15 23 202
15 24 240
15 25 36
15 26 193
15 27 105
15 28 246
15 29 190
15 30 157
15 31 185
15 32 37
15 33 257
15 34 12
15 35 117
15 36 108
15 37 209
15 38 16
15 39 148
15 40 135
15 41 126
15 42 41
15 43 227
15 44 78
15 45 168
15 46 60
15 47 3
15 48 131
15 49 159
15 50 263
15 51 165
15 52 234
15 53 57
15 54 158
15 55 109
15 56 132
15 57 112
15 58 85
15 59 234
15 60 256
15 61 131
15 62 221
15 63 48
15 64 65
15 65 107
15 66 184
15 67 199
15 68 92
15 69 221
15 70 12
15 71 222
15 72 94
15 73 195
15 74 235
15 75 238
15 76 27
15 77 66
15 78 36
15 79 269
15 80 266
15 81 213
15 82 133
15 83 186
15 84 260
15 85 150
15 86 105
15 87 94
15 88 36
15 89 148
15 90 112
16 17 43
16 18 67
16 19 159
16 20 203
16 21 203
16 22 62
16 23 92
16 24 161
16 25 216
16 26 48
16 27 114
16 28 27
16 29 189
16 30 148
16 31 0
16 32 62
16 33 230
16 34 58
16 35 157
16 36 147
16 37 243
16 38 231
16 39 156
16 40 104
16 41 56
16 42 128
16 43 230
16 44 227
16 45 112
16 46 24
16 47 31
16 48 200
16 49 3
16 50 12
16 51 96
16 52 101
16 53 146
16 54 134
16 55 88
16 56 113
16 57 91
16 58 30
16 59 150
16 60 185
16 61 247
16 62 254
16 63 193
16 64 210
16 65 24
16 66 165
16 67 84
16 68 264
16 69 229
16 70 189
16 71 251
16 72 201
16 73 32
16 74 148
16 75 225
16 76 92
16 77 62
16 78 153
16 79 145
16 80 91
16 81 69
16 82 181
16 83 146
16 84 24
16 85 194
16 86 69
16 87 88
16 88 269
16 89 195
16 90 255
17 18 229
17 19 143
17 20 191
17 21 212
17 22 101
17 23 136
17 24 268
17 25 151
17 26 158
17 27 21
17 28 235
17 29 179
17 30 95
17 31 96
17 32 250
17 33 213
17 34 23
17 35 234
17 36 156
17 37 262
17 38 100
17 39 39
17 40 135
17 41 34
17 42 152
17 43 147
17 44 87
17 45 20
17 46 85
17 47 152
17 48 85
17 49 23
17 50 253
17 51 158
17 52 256
17 53 157
17 54 62
17 55 135
17 56 30
17 57 199
17 58 73
17 59 179
17 60 155
17 61 15
17 62 199
17 63 170
17 64 63
17 65 264
17 66 23
17 67 94
17 68 38
17 69 36
17 70 92
17 71 165
17 72 61
17 73 138
17 74 10
17 75 52
17 76 81
17 77 113
17 78 46
17 79 41
17 80 159
17 81 22
17 82 173
17 83 269
17 84 5
17 85 90
17 86 138
17 87 121
17 88 80
17 89 83
17 90 146
18 19 257
18 20 187
18 21 86
18 22 183
18 23 260
18 24 141
18 25 263
18 26 142
18 27 154
18 28 172
18 29 139
18 30 195
18 31 120
18 32 163
18 33 125
18 34 29
18 35 212
18 36 198
18 37 211
18 38 213
18 39 134
18 40 156
18 41 25
18 42 250
18 43 2
18 44 257
18 45 153
18 46 128
18 47 50
18 48 39
18 49 148
18 50 19
18 51 7
18 52 156
18 53 137
18 54 60
18 55 83
18 56 130
18 57 73
18 58 120
18 59 258
18 60 10
18 61 100
18 62 124
18 63 189
18 64 254
18 65 114
18 66 74
18 67 117
18 68 93
18 69 49
18 70 157
18 71 2
18 72 207
18 73 249
18 74 56
18 75 252
18 76 49
18 77 200
18 78 111
18 79 136
18 80 190
18 81 165
18 82 219
18 83 216
18 84 62
18 85 49
18 86 175
18 87 102
18 88 57
18 89 40
18 90 124
19 20 269
19 21 189
19 22 251
19 23 215
19 24 94
19 25 180
19 26 145
19 27 23
19 28 210
19 29 269
19 30 217
19 31 243
19 32 78
19 33 114
19 34 26
19 35 185
19 36 129
19 37 2
19 38 242
19 39 157
19 40 114
19 41 174
19 42 175
19 43 10
19 44 242
19 45 242
19 46 5
19 47 160
19 48 197
19 49 212
19 50 197
19 51 111
19 52 172
19 53 213
19 54 173
19 55 66
19 56 245
19 57 225
19 58 153
19 59 159
19 60 255
19 61 176
19 62 235
19 63 120
19 64 144
19 65 261
19 66 98
19 67 114
19 68 141
19 69 90
19 70 37
19 71 252
19 72 112
19 73 193
19 74 62
19 75 243
19 76 97
19 77 126
19 78 46
19 79 37
19 80 207
19 81 111
19 82 84
19 83 120
19 84 264
19 85 29
19 86 15
19 87 139
19 88 178
19 89 104
19 90 43
20 21 83
20 22 138
20 23 44
20 24 63
20 25 101
20 26 26
20 27 146
20 28 268
20 29 102
20 30 223
20 31 121
20 32 14
20 33 11
20 34 175
20 35 92
20 36 196
20 37 101
20 38 67
20 39 114
20 40 150
20 41 25
20 42 180
20 43 111
20 44 177
20 45 132
20 46 97
20 47 41
20 48 180
20 49 141
20 50 137
20 51 112
20 52 265
20 53 57
20 54 180
20 55 72
20 56 226
20 57 146
20 58 204
20 59 238
20 60 189
20 61 43
20 62 169
20 63 0
20 64 248
20 65 236
20 66 162
20 67 136
20 68 108
20 69 47
20 70 205
20 71 73
20 72 195
20 73 84
20 74 129
20 75 164
20 76 134
20 77 17
20 78 231
20 79 73
20 80 219
20 81 123
20 82 74
20 83 254
20 84 82
20 85 166
20 86 113
20 87 152
20 88 217
20 89 7
20 90 118
21 22 39
21 23 46
21 24 135
21 25 94
21 26 42
21 27 105
21 28 64
21 29 25
21 30 237
21 31 53
21 32 119
21 33 28
21 34 9
21 35 219
21 36 72
21 37 155
21 38 21
21 39 183
21 40 260
21 41 68
21 42 2
21 43 189
21 44 222
21 45 17
21 46 74
21 47 135
21 48 77
21 49 215
21 50 169
21 51 168
21 52 55
21 53 221
21 54 253
21 55 103
21 56 199
21 57 76
21 58 26
21 59 74
21 60 154
21 61 163
21 62 154
21 63 138
21 64 45
21 65 91
21 66 198
21 67 183
21 68 77
21 69 111
21 70 93
21 71 258
21 72 242
21 73 222
21 74 51
21 75 148
21 76 49
21 77 166
21 78 235
21 79 54
21 80 150
21 81 65
21 82 6
21 83 170
21 84 177
21 85 95
21 86 177
21 87 47
21 88 79
21 89 202
21 90 242
22 23 86
22 24 242
22 25 21
22 26 261
22 27 179
22 28 59
22 29 165
22 30 134
22 31 199
22 32 48
22 33 211
22 34 235
22 35 114
22 36 220
22 37 162
22 38 136
22 39 6
22 40 54
22 41 256
22 42 234
22 43 92
22 44 106
22 45 48
22 46 99
22 47 121
22 48 51
22 49 51
22 50 42
22 51 122
22 52 157
22 53 144
22 54 133
22 55 45
22 56 259
22 57 211
22 58 226
22 59 87
22 60 127
22 61 35
22 62 10
22 63 19
22 64 226
22 65 30
22 66 143
22 67 65
22 68 66
22 69 241
22 70 90
22 71 75
22 72 25
22 73 65
22 74 68
22 75 235
22 76 108
22 77 76
22 78 159
22 79 91
22 80 201
22 81 111
22 82 110
22 83 123
22 84 32
22 85 124
22 86 53
22 87 152
22 88 235
22 89 78
22 90 171
23 24 38
23 25 31
23 26 102
23 27 99
23 28 73
23 29 213
23 30 112
23 31 199
23 32 109
23 33 4
23 34 264
23 35 195
23 36 151
23 37 226
23 38 131
23 39 267
23 40 223
23 41 204
23 42 239
23 43 13
23 44 58
23 45 42
23 46 172
23 47 24
23 48 109
23 49 63
23 50 174
23 51 118
23 52 148
23 53 118
23 54 263
23 55 52
23 56 70
23 57 77
23 58 156
23 59 45
23 60 256
23 61 189
23 62 169
23 63 109
23 64 21
23 65 111
23 66 166
23 67 131
23 68 172
23 69 79
23 70 164
23 71 228
23 72 31
23 73 82
23 74 120
23 75 20
23 76 184
23 77 119
23 78 174
23 79 269
23 80 148
23 81 27
23 82 194
23 83 104
23 84 228
23 85 186
23 86 217
23 87 235
23 88 180
23 89 172
23 90 223
24 25 186
24 26 259
24 27 237
24 28 72
24 29 7
24 30 187
24 31 82
24 32 116
24 33 188
24 34 63
24 35 223
24 36 79
24 37 24
24 38 254
24 39 194
24 40 225
24 41 56
24 42 54
24 43 175
24 44 137
24 45 173
24 46 248
24 47 35
24 48 261
24 49 115
24 50 13
24 51 110
24 52 258
24 53 197
24 54 146
24 55 221
24 56 175
24 57 142
24 58 41
24 59 126
24 60 205
24 61 236
24 62 133
24 63 203
24 64 117
24 65 168
24 66 46
24 67 171
24 68 203
24 69 47
24 70 104
24 71 128
24 72 76
24 73 66
24 74 30
24 75 156
24 76 250
24 77 56
24 78 149
24 79 69
24 80 172
24 81 264
24 82 65
24 83 19
24 84 171
24 85 99
24 86 16
24 87 75
24 88 255
24 89 37
24 90 223
25 26 39
25 27 219
25 28 80
25 29 123
25 30 268
25 31 263
25 32 235
25 33 239
25 34 267
25 35 240
25 36 68
25 37 141
25 38 148
25 39 75
25 40 47
25 41 139
25 42 33
25 43 139
25 44 28
25 45 179
25 46 74
25 47 226
25 48 91
25 49 2
25 50 135
25 51 77
25 52 258
25 53 240
25 54 231
25 55 70
25 56 75
25 57 125
25 58 61
25 59 100
25 60 161
25 61 34
25 62 102
25 63 168
25 64 162
25 65 113
25 66 224
25 67 166
25 68 178
25 69 164
25 70 9
25 71 142
25 72 192
25 73 101
25 74 107
25 75 203
25 76 123
25 77 14
25 78 213
25 79 59
25 80 223
25 81 72
25 82 100
25 83 50
25 84 155
25 85 198
25 86 219
25 87 195
25 88 182
25 89 209
25 90 97
26 27 12
26 28 260
26 29 26
26 30 25
26 31 0
26 32 253
26 33 165
26 34 217
26 35 165
26 36 186
26 37 121
26 38 16
26 39 258
26 40 95
26 41 209
26 42 50
26 43 198
26 44 32
26 45 237
26 46 199
26 47 220
26 48 269
26 49 210
26 50 156
26 51 130
26 52 100
26 53 177
26 54 122
26 55 93
26 56 137
26 57 179
26 58 213
26 59 10
26 60 178
26 61 114
26 62 215
26 63 43
26 64 202
26 65 213
26 66 208
26 67 69
26 68 165
26 69 161
26 70 201
26 71 56
26 72 140
26 73 105
26 74 136
26 75 184
26 76 114
26 77 255
26 78 182
26 79 201
26 80 50
26 81 51
26 82 49
26 83 261
26 84 72
26 85 230
26 86 50
26 87 158
26 88 189
26 89 236
26 90 114
27 28 255
27 29 122
27 30 204
27 31 143
27 32 254
27 33 21
27 34 90
27 35 53
27 36 10
27 37 91
27 38 225
27 39 236
27 40 147
27 41 14
27 42 128
27 43 263
27 44 45
27 45 208
27 46 235
27 47 166
27 48 206
27 49 260
27 50 64
27 51 84
27 52 226
27 53 85
27 54 61
27 55 116
27 56 79
27 57 225
27 58 170
27 59 228
27 60 263
27 61 238
27 62 241
27 63 129
27 64 199
27 65 201
27 66 226
27 67 261
27 68 54
27 69 264
27 70 243
27 71 196
27 72 106
27 73 222
27 74 46
27 75 96
27 76 205
27 77 61
27 78 245
27 79 265
27 80 207
27 81 18
27 82 262
27 83 195
27 84 218
27 85 160
27 86 77
27 87 94
27 88 131
27 89 255
27 90 207
28 29 90
28 30 209
28 31 225
28 32 35
28 33 146
28 34 30
28 35 46
28 36 169
28 37 117
28 38 127
28 39 153
28 40 82
28 41 48
28 42 190
28 43 12
28 44 237
28 45 129
28 46 214
28 47 178
28 48 227
28 49 63
28 50 124
28 51 111
28 52 55
28 53 2
28 54 256
28 55 61
28 56 31
28 57 84
28 58 212
28 59 62
28 60 61
28 61 46
28 62 246
28 63 85
28 64 26
28 65 119
28 66 262
28 67 217
28 68 138
28 69 133
28 70 90
28 71 258
28 72 32
28 73 171
28 74 131
28 75 203
28 76 220
28 77 207
28 78 222
28 79 131
28 80 42
28 81 126
28 82 209
28 83 76
28 84 73
28 85 67
28 86 111
28 87 196
28 88 253
28 89 20
28 90 1
29 30 190
29 31 263
29 32 93
29 33 149
29 34 122
29 35 72
29 36 30
29 37 196
29 38 156
29 39 197
29 40 198
29 41 206
29 42 62
29 43 29
29 44 10
29 45 188
29 46 142
29 47 174
29 48 113
29 49 96
29 50 185
29 51 10
29 52 241
29 53 63
29 54 106
29 55 177
29 56 170
29 57 82
29 58 244
29 59 226
29 60 217
29 61 257
29 62 33
29 63 139
29 64 40
29 65 87
29 66 110
29 67 248
29 68 105
29 69 21
29 70 102
29 71 205
29 72 160
29 73 143
29 74 53
29 75 178
29 76 141
29 77 30
29 78 157
29 79 169
29 80 140
29 81 200
29 82 29
29 83 260
29 84 72
29 85 83
29 86 136
29 87 164
29 88 141
29 89 151
29 90 142
30 31 190
30 32 117
30 33 190
30 34 103
30 35 47
30 36 102
30 37 6
30 38 268
30 39 22
30 40 52
30 41 143
30 42 266
30 43 33
30 44 249
30 45 211
30 46 17
30 47 144
30 48 220
30 49 173
30 50 227
30 51 157
30 52 153
30 53 52
30 54 102
30 55 190
30 56 15
30 57 264
30 58 134
30 59 64
30 60 178
30 61 213
30 62 117
30 63 268
30 64 267
30 65 124
30 66 22
30 67 162
30 68 198
30 69 38
30 70 209
30 71 202
30 72 82
30 73 108
30 74 163
30 75 5
30 76 155
30 77 230
30 78 141
30 79 247
30 80 241
30 81 43
30 82 261
30 83 160
30 84 60
30 85 124
30 86 54
30 87 266
30 88 52
30 89 184
30 90 104
31 32 268
31 33 111
31 34 147
31 35 139
31 36 66
31 37 236
31 38 235
31 39 238
31 40 30
31 41 48
31 42 102
31 43 149
31 44 259
31 45 138
31 46 51
31 47 73
31 48 150
31 49 55
31 50 91
31 51 22
31 52 49
31 53 44
31 54 5
31 55 83
31 56 159
31 57 131
31 58 34
31 59 137
31 60 133
31 61 225
31 62 253
31 63 162
31 64 220
31 65 153
31 66 19
31 67 27
31 68 145
31 69 87
31 70 239
31 71 8
31 72 76
31 73 237
31 74 110
31 75 26
31 76 249
31 77 190
31 78 65
31 79 57
31 80 103
31 81 117
31 82 243
31 83 240
31 84 243
31 85 62
31 86 229
31 87 9
31 88 111
31 89 142
31 90 7
32 33 202
32 34 147
32 35 6
32 36 75
32 37 19
32 38 46
32 39 22
32 40 27
32 41 193
32 42 56
32 43 142
32 44 99
32 45 229
32 46 157
32 47 149
32 48 266
32 49 266
32 50 254
32 51 256
32 52 157
32 53 259
32 54 47
32 55 120
32 56 40
32 57 113
32 58 3
32 59 180
32 60 212
32 61 216
32 62 43
32 63 90
32 64 236
32 65 175
32 66 166
32 67 108
32 68 123
32 69 261
32 70 9
32 71 224
32 72 27
32 73 8
32 74 212
32 75 164
32 76 7
32 77 197
32 78 137
32 79 94
32 80 31
32 81 87
32 82 127
32 83 17
32 84 177
32 85 251
32 86 197
32 87 145
32 88 35
32 89 83
32 90 62
33 34 55
33 35 144
33 36 131
33 37 188
33 38 258
33 39 202
33 40 42
33 41 162
33 42 30
33 43 203
33 44 58
33 45 214
33 46 150
33 47 256
33 48 255
33 49 220
33 50 151
33 51 6
33 52 83
33 53 172
33 54 178
33 55 146
33 56 124
33 57 57
33 58 30
33 59 102
33 60 23
33 61 35
33 62 42
33 63 148
33 64 149
33 65 245
33 66 58
33 67 66
33 68 3
33 69 251
33 70 241
33 71 217
33 72 145
33 73 118
33 74 26
33 75 178
33 76 69
33 77 174
33 78 118
33 79 260
33 80 67
33 81 4
33 82 14
33 83 244
33 84 43
33 85 57
33 86 151
33 87 178
33 88 185
33 89 102
33 90 78
34 35 261
34 36 130
34 37 230
34 38 189
34 39 212
34 40 90
34 41 190
34 42 197
34 43 42
34 44 252
34 45 177
34 46 148
34 47 93
34 48 102
34 49 246
34 50 120
34 51 30
34 52 199
34 53 215
34 54 35
34 55 216
34 56 248
34 57 206
34 58 181
34 59 132
34 60 190
34 61 157
34 62 128
34 63 2
34 64 203
34 65 167
34 66 83
34 67 164
34 68 185
34 69 47
34 70 224
34 71 140
34 72 168
34 73 57
34 74 108
34 75 99
34 76 109
34 77 92
34 78 156
34 79 31
34 80 206
34 81 209
34 82 184
34 83 146
34 84 123
34 85 248
34 86 113
34 87 132
34 88 58
34 89 193
34 90 56
35 36 77
35 37 156
35 38 267
35 39 237
35 40 140
35 41 106
35 42 69
35 43 156
35 44 257
35 45 163
35 46 123
35 47 48
35 48 60
35 49 121
35 50 117
35 51 73
35 52 212
35 53 130
35 54 115
35 55 202
35 56 247
35 57 46
35 58 44
35 59 96
35 60 225
35 61 100
35 62 36
35 63 83
35 64 254
35 65 158
35 66 217
35 67 151
35 68 6
35 69 233
35 70 70
35 71 236
35 72 153
35 73 158
35 74 257
35 75 248
35 76 232
35 77 251
35 78 91
35 79 103
35 80 116
35 81 107
35 82 106
35 83 67
35 84 19
35 85 80
35 86 138
35 87 187
35 88 123
35 89 138
35 90 242
36 37 49
36 38 229
36 39 202
36 40 60
36 41 146
36 42 141
36 43 101
36 44 142
36 45 86
36 46 105
36 47 237
36 48 75
36 49 70
36 50 47
36 51 222
36 52 43
36 53 196
36 54 79
36 55 177
36 56 123
36 57 50
36 58 1
36 59 260
36 60 31
36 61 146
36 62 255
36 63 41
36 64 255
36 65 107
36 66 146
36 67 10
36 68 235
36 69 66
36 70 63
36 71 160
36 72 246
36 73 145
36 74 21
36 75 76
36 76 196
36 77 100
36 78 195
36 79 33
36 80 265
36 81 30
36 82 150
36 83 212
36 84 212
36 85 155
36 86 210
36 87 250
36 88 53
36 89 142
36 90 239
37 38 126
37 39 79
37 40 185
37 41 163
37 42 154
37 43 211
37 44 261
37 45 75
37 46 1
37 47 60
37 48 40
37 49 267
37 50 40
37 51 87
37 52 67
37 53 6
37 54 34
37 55 255
37 56 246
37 57 69
37 58 148
37 59 128
37 60 67
37 61 170
37 62 111
37 63 261
37 64 63
37 65 128
37 66 119
37 67 237
37 68 219
37 69 113
37 70 231
37 71 158
37 72 35
37 73 205
37 74 48
37 75 25
37 76 195
37 77 264
37 78 251
37 79 12
37 80 128
37 81 125
37 82 247
37 83 101
37 84 10
37 85 202
37 86 113
37 87 16
37 88 179
37 89 222
37 90 0
38 39 233
38 40 89
38 41 263
38 42 232
38 43 31
38 44 208
38 45 220
38 46 185
38 47 65
38 48 214
38 49 214
38 50 116
38 51 199
38 52 64
38 53 219
38 54 57
38 55 129
38 56 194
38 57 83
38 58 131
38 59 33
38 60 66
38 61 74
38 62 54
38 63 102
38 64 199
38 65 28
38 66 163
38 67 259
38 68 251
38 69 125
38 70 122
38 71 148
38 72 252
38 73 147
38 74 215
38 75 203
38 76 246
38 77 132
38 78 251
38 79 83
38 80 89
38 81 79
38 82 235
38 83 210
38 84 12
38 85 180
38 86 53
38 87 264
38 88 174
38 89 148
38 90 93
39 40 22
39 41 53
39 42 247
39 43 117
39 44 224
39 45 72
39 46 68
39 47 140
39 48 246
39 49 88
39 50 213
39 51 257
39 52 134
39 53 24
39 54 148
39 55 72
39 56 253
39 57 69
39 58 42
39 59 35
39 60 234
39 61 237
39 62 266
39 63 205
39 64 3
39 65 23
39 66 236
39 67 245
39 68 72
39 69 62
39 70 73
39 71 25
39 72 2
39 73 180
39 74 5
39 75 103
39 76 266
39 77 152
39 78 105
39 79 147
39 80 138
39 81 162
39 82 227
39 83 147
39 84 173
39 85 235
39 86 8
39 87 246
39 88 230
39 89 216
39 90 24
40 41 161
40 42 121
40 43 208
40 44 40
40 45 118
40 46 235
40 47 155
40 48 11
40 49 99
40 50 11
40 51 153
40 52 34
40 53 215
40 54 233
40 55 61
40 56 75
40 57 232
40 58 159
40 59 244
40 60 191
40 61 58
40 62 90
40 63 80
40 64 64
40 65 266
40 66 132
40 67 250
40 68 266
40 69 267
40 70 57
40 71 42
40 72 21
40 73 13
40 74 218
40 75 24
40 76 98
40 77 207
40 78 134
40 79 108
40 80 196
40 81 2
40 82 164
40 83 249
40 84 65
40 85 235
40 86 63
40 87 231
40 88 9
40 89 122
40 90 128
41 42 110
41 43 172
41 44 268
41 45 236
41 46 263
41 47 177
41 48 212
41 49 182
41 50 19
41 51 83
41 52 126
41 53 36
41 54 236
41 55 10
41 56 163
41 57 53
41 58 145
41 59 239
41 60 133
41 61 222
41 62 163
41 63 221
41 64 215
41 65 119
41 66 76
41 67 43
41 68 37
41 69 105
41 70 90
41 71 242
41 72 147
41 73 248
41 74 170
41 75 112
41 76 99
41 77 49
41 78 26
41 79 164
41 80 223
41 81 15
41 82 114
41 83 60
41 84 149
41 85 7
41 86 175
41 87 156
41 88 245
41 89 235
41 90 131
42 43 10
42 44 229
42 45 29
42 46 97
42 47 46
42 48 109
42 49 234
42 50 217
42 51 138
42 52 240
42 53 160
42 54 210
42 55 156
42 56 100
42 57 22
42 58 113
42 59 121
42 60 40
42 61 240
42 62 90
42 63 10
42 64 6
42 65 159
42 66 209
42 67 38
42 68 205
42 69 92
42 70 253
42 71 76
42 72 54
42 73 134
42 74 10
42 75 205
42 76 192
42 77 251
42 78 165
42 79 55
42 80 223
42 81 176
42 82 134
42 83 120
42 84 49
42 85 30
42 86 230
42 87 182
42 88 161
42 89 252
42 90 42
43 44 248
43 45 163
43 46 257
43 47 195
43 48 51
43 49 6
43 50 205
43 51 74
43 52 69
43 53 17
43 54 58
43 55 224
43 56 18
43 57 18
43 58 200
43 59 136
43 60 1
43 61 124
43 62 64
43 63 89
43 64 269
43 65 81
43 66 91
43 67 8
43 68 265
43 69 13
43 70 14
43 71 227
43 72 214
43 73 75
43 74 162
43 75 211
43 76 77
43 77 262
43 78 129
43 79 78
43 80 230
43 81 246
43 82 154
43 83 45
43 84 117
43 85 6
43 86 59
43 87 208
43 88 162
43 89 269
43 90 227
44 45 73
44 46 82
44 47 142
44 48 48
44 49 41
44 50 4
44 51 115
44 52 183
44 53 121
44 54 117
44 55 95
44 56 214
44 57 30
44 58 172
44 59 61
44 60 123
44 61 103
44 62 44
44 63 16
44 64 174
44 65 266
44 66 83
44 67 91
44 68 152
44 69 107
44 70 226
44 71 131
44 72 174
44 73 94
44 74 67
44 75 224
44 76 71
44 77 16
44 78 31
44 79 262
44 80 233
44 81 236
44 82 251
44 83 224
44 84 15
44 85 41
44 86 244
44 87 191
44 88 158
44 89 62
44 90 4
45 46 21
45 47 137
45 48 205
45 49 189
45 50 167
45 51 264
45 52 267
45 53 42
45 54 77
45 55 233
45 56 225
45 57 37
45 58 148
45 59 213
45 60 11
45 61 104
45 62 256
45 63 250
45 64 26
45 65 106
45 66 95
45 67 150
45 68 223
45 69 56
45 70 237
45 71 230
45 72 163
45 73 19
45 74 248
45 75 71
45 76 71
45 77 7
45 78 70
45 79 219
45 80 185
45 81 150
45 82 173
45 83 60
45 84 185
45 85 9
45 86 263
45 87 186
45 88 159
45 89 254
45 90 24
46 47 198
46 48 24
46 49 245
46 50 23
46 51 212
46 52 56
46 53 135
46 54 84
46 55 184
46 56 45
46 57 265
46 58 181
46 59 38
46 60 160
46 61 19
46 62 37
46 63 61
46 64 260
46 65 143
46 66 249
46 67 26
46 68 147
46 69 40
46 70 212
46 71 174
46 72 39
46 73 28
46 74 12
46 75 54
46 76 131
46 77 147
46 78 187
46 79 224
46 80 243
46 81 59
46 82 137
46 83 195
46 84 155
46 85 123
46 86 197
46 87 52
46 88 112
46 89 217
46 90 241
47 48 142
47 49 142
47 50 212
47 51 217
47 52 75
47 53 200
47 54 152
47 55 226
47 56 98
47 57 113
47 58 64
47 59 16
47 60 10
47 61 241
47 62 176
47 63 201
47 64 0
47 65 113
47 66 68
47 67 114
47 68 18
47 69 174
47 70 111
47 71 135
47 72 61
47 73 247
47 74 91
47 75 103
47 76 209
47 77 197
47 78 230
47 79 53
47 80 73
47 81 250
47 82 96
47 83 47
47 84 72
47 85 79
47 86 128
47 87 215
47 88 86
47 89 30
47 90 253
48 49 33
48 50 259
48 51 75
48 52 131
48 53 138
48 54 233
48 55 92
48 56 126
48 57 105
48 58 117
48 59 213
48 60 181
48 61 99
48 62 87
48 63 71
48 64 64
48 65 42
48 66 139
48 67 7
48 68 142
48 69 128
48 70 48
48 71 218
48 72 60
48 73 195
48 74 33
48 75 69
48 76 121
48 77 10
48 78 154
48 79 85
48 80 84
48 81 218
48 82 122
48 83 67
48 84 9
48 85 79
48 86 186
48 87 142
48 88 7
48 89 235
48 90 191
49 50 251
49 51 26
49 52 230
49 53 45
49 54 260
49 55 256
49 56 224
49 57 17
49 58 84
49 59 87
49 60 47
49 61 207
49 62 90
49 63 218
49 64 139
49 65 268
49 66 167
49 67 65
49 68 33
49 69 84
49 70 190
49 71 118
49 72 243
49 73 9
49 74 86
49 75 185
49 76 217
49 77 153
49 78 35
49 79 70
49 80 155
49 81 76
49 82 225
49 83 100
49 84 48
49 85 207
49 86 71
49 87 194
49 88 63
49 89 164
49 90 126
50 51 150
50 52 153
50 53 20
50 54 26
50 55 50
50 56 162
50 57 72
50 58 63
50 59 189
50 60 130
50 61 214
50 62 222
50 63 2
50 64 65
50 65 266
50 66 173
50 67 173
50 68 31
50 69 142
50 70 142
50 71 249
50 72 164
50 73 96
50 74 74
50 75 256
50 76 199
50 77 233
50 78 255
50 79 263
50 80 84
50 81 10
50 82 134
50 83 37
50 84 169
50 85 111
50 86 177
50 87 172
50 88 2
50 89 100
50 90 205
51 52 29
51 53 132
51 54 199
51 55 198
51 56 164
51 57 217
51 58 118
51 59 57
51 60 25
51 61 241
51 62 53
51 63 268
51 64 164
51 65 256
51 66 232
51 67 208
51 68 208
51 69 265
51 70 23
51 71 200
51 72 151
51 73 72
51 74 52
51 75 46
51 76 186
51 77 36
51 78 206
51 79 190
51 80 117
51 81 118
51 82 205
51 83 46
51 84 58
51 85 0
51 86 115
51 87 128
51 88 40
51 89 47
51 90 11
52 53 78
52 54 212
52 55 65
52 56 192
52 57 159
52 58 151
52 59 13
52 60 194
52 61 77
52 62 77
52 63 182
52 64 164
52 65 121
52 66 57
52 67 164
52 68 168
52 69 2
52 70 150
52 71 250
52 72 265
52 73 244
52 74 79
52 75 199
52 76 178
52 77 35
52 78 233
52 79 117
52 80 110
52 81 71
52 82 166
52 83 71
52 84 235
52 85 202
52 86 46
52 87 127
52 88 180
52 89 255
52 90 123
53 54 189
53 55 195
53 56 201
53 57 253
53 58 267
53 59 173
53 60 195
53 61 252
53 62 2
53 63 162
53 64 193
53 65 87
53 66 133
53 67 246
53 68 120
53 69 239
53 70 58
53 71 54
53 72 92
53 73 109
53 74 228
53 75 36
53 76 88
53 77 112
53 78 190
53 79 205
53 80 4
53 81 138
53 82 147
53 83 226
53 84 159
53 85 17
53 86 67
53 87 175
53 88 143
53 89 111
53 90 21
54 55 0
54 56 216
54 57 28
54 58 142
54 59 17
54 60 123
54 61 45
54 62 186
54 63 218
54 64 23
54 65 237
54 66 75
54 67 151
54 68 256
54 69 59
54 70 19
54 71 0
54 72 28
54 73 219
54 74 110
54 75 104
54 76 21
54 77 133
54 78 48
54 79 147
54 80 123
54 81 170
54 82 18
54 83 189
54 84 97
54 85 30
54 86 86
54 87 249
54 88 144
54 89 27
54 90 244
55 56 33
55 57 128
55 58 59
55 59 233
55 60 24
55 61 57
55 62 109
55 63 178
55 64 139
55 65 5
55 66 250
55 67 239
55 68 103
55 69 230
55 70 86
55 71 102
55 72 233
55 73 122
55 74 95
55 75 132
55 76 186
55 77 72
55 78 155
55 79 168
55 80 241
55 81 123
55 82 119
55 83 203
55 84 89
55 85 78
55 86 206
55 87 32
55 88 95
55 89 109
55 90 175
56 57 241
56 58 256
56 59 102
56 60 210
56 61 155
56 62 159
56 63 129
56 64 245
56 65 201
56 66 165
56 67 49
56 68 240
56 69 24
56 70 210
56 71 174
56 72 153
56 73 33
56 74 222
56 75 186
56 76 146
56 77 59
56 78 13
56 79 9
56 80 67
56 81 149
56 82 146
56 83 80
56 84 171
56 85 4
56 86 252
56 87 184
56 88 22
56 89 244
56 90 12
57 58 50
57 59 136
57 60 137
57 61 171
57 62 252
57 63 1
57 64 40
57 65 57
57 66 198
57 67 133
57 68 154
57 69 268
57 70 216
57 71 1
57 72 120
57 73 156
57 74 105
57 75 164
57 76 199
57 77 236
57 78 27
57 79 59
57 80 116
57 81 64
57 82 202
57 83 227
57 84 110
57 85 35
57 86 112
57 87 185
57 88 6
57 89 103
57 90 238
58 59 85
58 60 47
58 61 261
58 62 14
58 63 1
58 64 86
58 65 60
58 66 36
58 67 85
58 68 221
58 69 85
58 70 152
58 71 85
58 72 177
58 73 166
58 74 146
58 75 104
58 76 5
58 77 207
58 78 258
58 79 237
58 80 166
58 81 139
58 82 247
58 83 267
58 84 225
58 85 25
58 86 108
58 87 57
58 88 264
58 89 187
58 90 52
59 60 70
59 61 84
59 62 71
59 63 215
59 64 253
59 65 116
59 66 5
59 67 192
59 68 81
59 69 134
59 70 269
59 71 213
59 72 26
59 73 249
59 74 220
59 75 148
59 76 242
59 77 101
59 78 265
59 79 110
59 80 267
59 81 70
59 82 106
59 83 18
59 84 5
59 85 149
59 86 34
59 87 147
59 88 202
59 89 180
59 90 214
60 61 21
60 62 53
60 63 98
60 64 219
60 65 263
60 66 166
60 67 196
60 68 23
60 69 122
60 70 9
60 71 108
60 72 100
60 73 194
60 74 249
60 75 144
60 76 79
60 77 43
60 78 169
60 79 196
60 80 103
60 81 182
60 82 162
60 83 260
60 84 242
60 85 132
60 86 153
60 87 246
60 88 52
60 89 126
60 90 166
61 62 56
61 63 95
61 64 267
61 65 124
61 66 141
61 67 256
61 68 47
61 69 111
61 70 38
61 71 107
61 72 55
61 73 215
61 74 126
61 75 23
61 76 175
61 77 195
61 78 218
61 79 17
61 80 255
61 81 25
61 82 126
61 83 137
61 84 151
61 85 13
61 86 214
61 87 100
61 88 246
61 89 239
61 90 159
62 63 9
62 64 65
62 65 168
62 66 167
62 67 150
62 68 66
62 69 32
62 70 172
62 71 253
62 72 64
62 73 227
62 74 11
62 75 8
62 76 36
62 77 78
62 78 48
62 79 256
62 80 161
62 81 260
62 82 138
62 83 47
62 84 84
62 85 9
62 86 238
62 87 195
62 88 141
62 89 126
62 90 161
63 64 18
63 65 206
63 66 72
63 67 44
63 68 141
63 69 154
63 70 191
63 71 265
63 72 186
63 73 82
63 74 107
63 75 230
63 76 156
63 77 244
63 78 138
63 79 50
63 80 35
63 81 44
63 82 269
63 83 157
63 84 21
63 85 54
63 86 220
63 87 50
63 88 22
63 89 189
63 90 119
64 65 60
64 66 120
64 67 166
64 68 216
64 69 198
64 70 7
64 71 30
64 72 80
64 73 53
64 74 238
64 75 267
64 76 31
64 77 206
64 78 5
64 79 254
64 80 267
64 81 231
64 82 97
64 83 209
64 84 141
64 85 179
64 86 7
64 87 48
64 88 60
64 89 204
64 90 88
65 66 128
65 67 168
65 68 23
65 69 14
65 70 106
65 71 32
65 72 119
65 73 23
65 74 34
65 75 251
65 76 187
65 77 91
65 78 15
65 79 224
65 80 119
65 81 240
65 82 128
65 83 57
65 84 3
65 85 186
65 86 119
65 87 51
65 88 90
65 89 259
65 90 107
66 67 0
66 68 102
66 69 158
66 70 98
66 71 48
66 72 65
66 73 0
66 74 2
66 75 169
66 76 157
66 77 73
66 78 114
66 79 27
66 80 3
66 81 48
66 82 238
66 83 213
66 84 196
66 85 135
66 86 163
66 87 129
66 88 43
66 89 183
66 90 79
67 68 194
67 69 133
67 70 217
67 71 37
67 72 168
67 73 56
67 74 129
67 75 36
67 76 121
67 77 153
67 78 233
67 79 170
67 80 36
67 81 186
67 82 105
67 83 110
67 84 24
67 85 233
67 86 211
67 87 41
67 88 164
67 89 15
67 90 222
68 69 158
68 70 9
68 71 56
68 72 58
68 73 137
68 74 10
68 75 200
68 76 137
68 77 105
68 78 219
68 79 67
68 80 173
68 81 188
68 82 268
68 83 174
68 84 210
68 85 255
68 86 247
68 87 0
68 88 37
68 89 124
68 90 233
69 70 29
69 71 104
69 72 252
69 73 258
69 74 178
69 75 38
69 76 96
69 77 138
69 78 102
69 79 182
69 80 55
69 81 239
69 82 70
69 83 21
69 84 229
69 85 209
69 86 33
69 87 254
69 88 224
69 89 110
69 90 1
70 71 259
70 72 168
70 73 141
70 74 205
70 75 256
70 76 238
70 77 209
70 78 191
70 79 65
70 80 65
70 81 200
70 82 244
70 83 47
70 84 109
70 85 217
70 86 139
70 87 25
70 88 157
70 89 211
70 90 208
71 72 58
71 73 148
71 74 6
71 75 58
71 76 50
71 77 161
71 78 258
71 79 132
71 80 60
71 81 62
71 82 185
71 83 71
71 84 257
71 85 257
71 86 237
71 87 6
71 88 28
71 89 120
71 90 161
72 73 192
72 74 30
72 75 174
72 76 30
72 77 73
72 78 139
72 79 17
72 80 264
72 81 134
72 82 18
72 83 45
72 84 1
72 85 256
72 86 72
72 87 69
72 88 60
72 89 140
72 90 67
73 74 113
73 75 2
73 76 7
73 77 122
73 78 167
73 79 121
73 80 98
73 81 201
73 82 2
73 83 168
73 84 233
73 85 145
73 86 94
73 87 61
73 88 79
73 89 40
73 90 115
74 75 5
74 76 250
74 77 224
74 78 13
74 79 124
74 80 203
74 81 239
74 82 18
74 83 188
74 84 4
74 85 111
74 86 216
74 87 11
74 88 31
74 89 52
74 90 5
75 76 52
75 77 203
75 78 263
75 79 60
75 80 153
75 81 75
75 82 34
75 83 168
75 84 196
75 85 79
75 86 136
75 87 86
75 88 73
75 89 136
75 90 22
76 77 266
76 78 49
76 79 105
76 80 174
76 81 148
76 82 117
76 83 201
76 84 71
76 85 228
76 86 43
76 87 248
76 88 178
76 89 165
76 90 172
77 78 191
77 79 91
77 80 132
77 81 191
77 82 97
77 83 256
77 84 128
77 85 141
77 86 200
77 87 80
77 88 255
77 89 67
77 90 36
78 79 34
78 80 222
78 81 74
78 82 49
78 83 240
78 84 134
78 85 72
78 86 33
78 87 225
78 88 35
78 89 198
78 90 71
79 80 45
79 81 121
79 82 200
79 83 209
79 84 255
79 85 72
79 86 115
79 87 239
79 88 45
79 89 135
79 90 68
80 81 262
80 82 199
80 83 160
80 84 162
80 85 269
80 86 30
80 87 98
80 88 200
80 89 175
80 90 30
81 82 244
81 83 85
81 84 236
81 85 160
81 86 14
81 87 27
81 88 35
81 89 191
81 90 45
82 83 1
82 84 175
82 85 205
82 86 20
82 87 238
82 88 204
82 89 46
82 90 73
83 84 45
83 85 86
83 86 107
83 87 36
83 88 36
83 89 257
83 90 117
84 85 17
84 86 148
84 87 190
84 88 0
84 89 56
84 90 14
85 86 29
85 87 187
85 88 69
85 89 159
85 90 192
86 87 8
86 88 246
86 89 11
86 90 185
87 88 141
87 89 3
87 90 208
88 89 226
88 90 73
89 90 150
